
Gurobi 11.0.0 (linux64) logging started Tue Sep 17 03:02:55 2024

Set parameter LogFile to value "gurobi.log"
Set parameter InfUnbdInfo to value 1
Gurobi Optimizer version 11.0.0 build v11.0.0rc2 (linux64 - "Ubuntu 22.04.4 LTS")

CPU model: AMD EPYC 7V13 64-Core Processor, instruction set [SSE2|AVX|AVX2]
Thread count: 128 physical cores, 128 logical processors, using up to 32 threads

Optimize a model with 29 rows, 344 columns and 97 nonzeros
Model fingerprint: 0x24f33454
Model has 339 quadratic constraints
Model has 1 general constraint
Variable types: 91 continuous, 253 integer (0 binary)
Coefficient statistics:
  Matrix range     [1e+00, 8e+04]
  QMatrix range    [1e+00, 8e+04]
  QLMatrix range   [1e+00, 8e+04]
  Objective range  [1e+00, 1e+00]
  Bounds range     [1e+00, 6e+11]
  RHS range        [1e+00, 1e+00]
  QRHS range       [1e+00, 2e+06]
Warning: Model contains large bounds
         Consider reformulating model or setting NumericFocus parameter
         to avoid numerical issues.
Using branch priorities (all 0).
Presolve added 15 rows and 0 columns
Presolve removed 0 rows and 42 columns
Presolve time: 0.01s
Presolved: 1169 rows, 470 columns, 3039 nonzeros
Presolved model has 26 SOS constraint(s)
Presolved model has 199 bilinear constraint(s)
Warning: Model contains variables with very large bounds participating
         in product terms.
         Presolve was not able to compute smaller bounds for these variables.
         Consider bounding these variables or reformulating the model.


Solving non-convex MIQCP

Variable types: 132 continuous, 338 integer (130 binary)

Root relaxation: objective 9.632194e+03, 219 iterations, 0.00 seconds (0.00 work units)

    Nodes    |    Current Node    |     Objective Bounds      |     Work
 Expl Unexpl |  Obj  Depth IntInf | Incumbent    BestBd   Gap | It/Node Time

     0     0 9632.19398    0   84          - 9632.19398      -     -    0s
     0     0 9632.19398    0   75          - 9632.19398      -     -    0s
H    0     0                    1.921928e+10 9632.19398   100%     -    0s
H    0     0                    2.606698e+07 9632.19398   100%     -    0s
H    0     0                    2.602858e+07 9632.19398   100%     -    0s
     0     0 9833.68163    0  191 2.6029e+07 9833.68163   100%     -    0s
     0     0 9833.68170    0  178 2.6029e+07 9833.68170   100%     -    0s
H    0     0                    2995940.0000 9833.68170   100%     -    0s
H    0     0                    2347880.0000 9833.68170   100%     -    0s
     0     0 9833.68937    0  166 2347880.00 9833.68937   100%     -    0s
H    0     0                    550576.00000 9833.68937  98.2%     -    0s
     0     0 9836.41880    0  144 550576.000 9836.41880  98.2%     -    0s
H    0     0                    197700.00000 9846.99530  95.0%     -    0s
     0     0 9855.86780    0   93 197700.000 9855.86780  95.0%     -    0s
     0     0 9858.26076    0  112 197700.000 9858.26076  95.0%     -    0s
H    0     0                    181300.00000 9958.11213  94.5%     -    0s
H    0     0                    121300.00000 9958.11213  91.8%     -    0s
     0     0 10048.2086    0  130 121300.000 10048.2086  91.7%     -    0s
     0     0 10058.6344    0  122 121300.000 10058.6344  91.7%     -    0s
H    0     0                    120300.00000 10062.3204  91.6%     -    0s
     0     0 10062.3204    0  160 120300.000 10062.3204  91.6%     -    0s
     0     0 10268.2188    0  129 120300.000 10268.2188  91.5%     -    0s
H    0     0                    62700.000000 10268.2188  83.6%     -    0s
     0     0 10311.8825    0  145 62700.0000 10311.8825  83.6%     -    0s
     0     0 10311.8825    0   94 62700.0000 10311.8825  83.6%     -    0s
     0     0 10311.8825    0   88 62700.0000 10311.8825  83.6%     -    0s
     0     0 10311.8825    0  163 62700.0000 10311.8825  83.6%     -    0s
     0     0 10311.8825    0  121 62700.0000 10311.8825  83.6%     -    0s
     0     0 10511.6463    0  107 62700.0000 10511.6463  83.2%     -    0s
     0     0 10511.8522    0  110 62700.0000 10511.8522  83.2%     -    0s
     0     0 10540.5071    0  104 62700.0000 10540.5071  83.2%     -    0s
     0     0 14429.9714    0   77 62700.0000 14429.9714  77.0%     -    0s
H    0     0                    25900.000000 14430.6194  44.3%     -    0s
H    0     0                    25100.000000 14430.6194  42.5%     -    0s
     0     0 14430.6194    0   75 25100.0000 14430.6194  42.5%     -    0s
     0     0 14430.8926    0   78 25100.0000 14430.8926  42.5%     -    0s
     0     0 14430.8926    0   41 25100.0000 14430.8926  42.5%     -    0s
     0     0 14430.8926    0   57 25100.0000 14430.8926  42.5%     -    0s
H    0     0                    24900.000000 14430.8926  42.0%     -    0s
     0     0 14430.8926    0   61 24900.0000 14430.8926  42.0%     -    0s
     0     0 14430.8947    0   60 24900.0000 14430.8947  42.0%     -    0s
H    0     0                    24475.000000 14448.3515  41.0%     -    0s
     0     0 14448.3515    0   60 24475.0000 14448.3515  41.0%     -    0s
     0     0 14448.3515    0   64 24475.0000 14448.3515  41.0%     -    0s
     0     0 14448.3515    0   66 24475.0000 14448.3515  41.0%     -    0s
     0     0 14448.3515    0   51 24475.0000 14448.3515  41.0%     -    0s
     0     0 14448.3515    0   37 24475.0000 14448.3515  41.0%     -    0s
     0     0 14448.3515    0   34 24475.0000 14448.3515  41.0%     -    0s
H    0     0                    24450.000000 14448.3515  40.9%     -    0s
     0     0 14472.0000    0   35 24450.0000 14472.0000  40.8%     -    0s
H    0     0                    23876.000000 14658.5906  38.6%     -    0s
     0     0 14658.5906    0   57 23876.0000 14658.5906  38.6%     -    0s
     0     0 14658.5906    0   58 23876.0000 14658.5906  38.6%     -    0s
H    0     0                    23776.000000 14658.5906  38.3%     -    0s
H    0     0                    23676.000000 14658.5906  38.1%     -    0s
H    0     0                    23626.000000 14658.5906  38.0%     -    0s
     0     2 14658.5906    0   58 23626.0000 14658.5906  38.0%     -    1s

Cutting planes:
  Gomory: 2
  Implied bound: 1
  MIR: 11
  StrongCG: 1
  RLT: 5
  Relax-and-lift: 1

Explored 103 nodes (2461 simplex iterations) in 1.24 seconds (0.17 work units)
Thread count was 32 (of 128 available processors)

Solution count 10: 23626 23676 23776 ... 62700

Optimal solution found (tolerance 1.00e-10)
Best objective 2.362600000000e+04, best bound 2.362600000000e+04, gap 0.0000%
